858,59
956,131
875,265
702,427
668,380
227,175
231,406
450,860
436,887
561,776
633,441
681,376
633,371
708,321
841,487
735,300
727,264
795,369
1066,467
947,599
1001,569
737,761
681,556
512,529
293,688
200,651
448,639
1080,535
948,542
721,486
649,613
1093,107
998,-30
635,110
364,-30
417,42
539,360
